10
2 1 890
3 1 190
3 2 759
4 1 635
4 2 593
4 3 99
5 1 959
5 2 706
5 3 446
5 4 421
6 1 861
6 2 349
6 3 418
6 4 965
6 5 378
7 1 617
7 2 371
7 3 570
7 4 954
7 5 782
7 6 771
8 1 611
8 2 73
8 3 643
8 4 232
8 5 868
8 6 345
8 7 511
9 1 942
9 2 925
9 3 359
9 4 95
9 5 303
9 6 438
9 7 749
9 8 824
